(set-logic LRA)
 
(define-fun OutputNeuron_0_idx0 ((onnx__MatMul_0_0 Real) (onnx__MatMul_0_1 Real) (onnx__MatMul_0_2 Real) (onnx__MatMul_0_3 Real)) Real
  (let ((a!1 (ite (<= (+ (* (/ 1207683.0 500000.0) onnx__MatMul_0_0)
                       (* (/ 1812109.0 1000000.0) onnx__MatMul_0_1)
                       (* (- (/ 49261.0 40000.0)) onnx__MatMul_0_2)
                       (* (/ 21241.0 500000.0) onnx__MatMul_0_3))
                    (/ 340053.0 500000.0))
                0.0
                (+ (- (/ 340053.0 500000.0))
                   (* (/ 1207683.0 500000.0) onnx__MatMul_0_0)
                   (* (/ 1812109.0 1000000.0) onnx__MatMul_0_1)
                   (* (- (/ 49261.0 40000.0)) onnx__MatMul_0_2)
                   (* (/ 21241.0 500000.0) onnx__MatMul_0_3))))
      (a!2 (ite (<= (+ (* (/ 138419.0 1000000.0) onnx__MatMul_0_0)
                       (* (/ 71517.0 250000.0) onnx__MatMul_0_1)
                       (* (- (/ 31967.0 250000.0)) onnx__MatMul_0_2)
                       (* (/ 30433.0 1000000.0) onnx__MatMul_0_3))
                    (/ 192051.0 500000.0))
                0.0
                (+ (- (/ 192051.0 500000.0))
                   (* (/ 138419.0 1000000.0) onnx__MatMul_0_0)
                   (* (/ 71517.0 250000.0) onnx__MatMul_0_1)
                   (* (- (/ 31967.0 250000.0)) onnx__MatMul_0_2)
                   (* (/ 30433.0 1000000.0) onnx__MatMul_0_3)))))
  (+ (- (/ 257419.0 100000.0))
     (* (/ 1593637.0 500000.0) a!1)
     (* (- (/ 12069.0 500000.0)) a!2)))
)

(define-fun OutputNeuron_0_idx1 ((onnx__MatMul_0_0 Real) (onnx__MatMul_0_1 Real) (onnx__MatMul_0_2 Real) (onnx__MatMul_0_3 Real)) Real
  (let ((a!1 (ite (<= (+ (* (/ 1207683.0 500000.0) onnx__MatMul_0_0)
                       (* (/ 1812109.0 1000000.0) onnx__MatMul_0_1)
                       (* (- (/ 49261.0 40000.0)) onnx__MatMul_0_2)
                       (* (/ 21241.0 500000.0) onnx__MatMul_0_3))
                    (/ 340053.0 500000.0))
                0.0
                (+ (- (/ 340053.0 500000.0))
                   (* (/ 1207683.0 500000.0) onnx__MatMul_0_0)
                   (* (/ 1812109.0 1000000.0) onnx__MatMul_0_1)
                   (* (- (/ 49261.0 40000.0)) onnx__MatMul_0_2)
                   (* (/ 21241.0 500000.0) onnx__MatMul_0_3))))
      (a!2 (ite (<= (+ (* (/ 138419.0 1000000.0) onnx__MatMul_0_0)
                       (* (/ 71517.0 250000.0) onnx__MatMul_0_1)
                       (* (- (/ 31967.0 250000.0)) onnx__MatMul_0_2)
                       (* (/ 30433.0 1000000.0) onnx__MatMul_0_3))
                    (/ 192051.0 500000.0))
                0.0
                (+ (- (/ 192051.0 500000.0))
                   (* (/ 138419.0 1000000.0) onnx__MatMul_0_0)
                   (* (/ 71517.0 250000.0) onnx__MatMul_0_1)
                   (* (- (/ 31967.0 250000.0)) onnx__MatMul_0_2)
                   (* (/ 30433.0 1000000.0) onnx__MatMul_0_3)))))
  (+ (/ 495483.0 200000.0)
     (* (- (/ 162521.0 50000.0)) a!1)
     (* (/ 295697.0 1000000.0) a!2)))
)

; --- OutputFunctions --- 
; Output_0: OutputNeuron_0_idx0 
; Output_1: OutputNeuron_0_idx1 
; --- NetworkFinished --- 
